Input: forum-13.prec25.dzn
============================================================
Total Runtime: 1.1759 seconds
Input parsing: 0.0014 seconds
Constraint building: 0.6090 seconds
MaxSAT solving: 0.1498 seconds
============================================================

Total variables: 182834
Total clauses: 384540
MaxSAT found with cost: N/A
NO SOLUTION FOUND
